/*********************************************
 * OPL 12.7.0.0 Data
 * Author: carlo
 * Creation Date: 10/lug/2020 at 11:16:54
 *********************************************/

utenti =  {"u1", "u2"};
locazioni = {"p1", "p2", "p3", "p4"};
 
d = [10, 15, 1, 8];
c = [[18, 11, 14, 15], [6, 14, 24, 8]];